27	3	3
5	3	4	35	39	60	
0	0	0	0	1	10	10	10	9	9	25	2	3	4	5	6	7	8	9	10	11	12	13	14	15	16	17	18	19	20	21	22	23	24	25	26
4	2	1	2	10	6	10	7	10	4	5	27	23	24	20	14
5	2	0	0	8	7	1	6	10	6	4	27	15	21	17
4	2	0	2	1	9	10	7	3	5	4	27	14	24	22
4	1	1	2	10	7	2	2	9	4	4	27	21	26	13
2	1	1	2	7	9	3	6	8	1	2	27	19
3	0	0	1	4	8	7	3	5	6	4	27	10	11	26
5	0	0	1	7	2	3	8	7	2	5	27	25	15	16	22
2	2	1	2	3	8	1	3	5	4	4	27	23	10	25
2	1	0	0	7	4	10	8	5	8	2	27	16
1	0	1	1	2	1	7	4	7	5	3	27	13	16
3	2	1	1	5	10	2	1	3	7	3	27	14	13
3	2	1	1	7	10	8	9	7	5	3	27	17	14
4	0	1	2	1	10	3	1	2	7	2	27	26
3	0	1	1	4	9	10	4	7	5	3	27	20	18
1	2	1	2	1	8	6	7	1	3	2	27	21
4	2	0	0	2	6	3	3	6	5	2	27	25
3	0	1	2	10	3	5	7	2	2	3	27	25	26
1	1	1	1	2	2	1	5	2	3	1	27
1	1	1	1	1	6	1	1	9	7	1	27
3	0	0	1	6	10	4	2	7	5	1	27
1	2	0	2	4	8	10	6	1	6	3	27	25	24
1	2	0	1	1	10	9	5	7	10	2	27	24
2	0	0	2	6	9	1	7	3	3	2	27	26
2	0	1	2	10	4	9	1	5	8	1	27
5	0	1	2	7	10	7	1	1	4	1	27
0	0	0	0	6	4	2	6	9	2	0
